103736
15,32,26,6,55,16,73,31,57,76,8,19,66,75,13,69,61,79,25,35,65,70,20,53,45,44,28,9,0,63,72,12,36,17,47,4,18,23,30,64,49,3,52,7,82,62,38,51,40,77,68,14,24,41,54,22,11,2,42,56,33,48,46,59,80,71,50,37,1,29,34,5,60,78,27,58,67,43,21,81,74,39,10
